
Gurobi 13.0.2 (win64) logging started Mon Jul 20 05:47:43 2026

Set parameter LogFile to value "E:\codes\ExactEBRP\results\gf_solver_backend_migration_round24r\runs\stage1a__moderate4301__t_grb_ext_warm__120s\external\native_logs\L0_attempt_0.gurobi.log"
Gurobi Optimizer version 13.0.2 build v13.0.2rc1 (win64 - Windows 10.0 (19045.2))

CPU model: 12th Gen Intel(R) Core(TM) i7-12700KF, instruction set [SSE2|AVX|AVX2]
Thread count: 12 physical cores, 20 logical processors, using up to 1 threads

Non-default parameters:
TimeLimit  30
MIPGap  0
MIPGapAbs  0
LogToConsole  0
Threads  1

Optimize a model with 17982 rows, 3396 columns and 143431 nonzeros (Min)
Model fingerprint: 0xb158b18d
Model has 21 linear objective coefficients
Variable types: 1705 continuous, 1691 integer (1491 binary)
Coefficient statistics:
  Matrix range     [5e-03, 2e+04]
  Objective range  [8e-03, 1e+00]
  Bounds range     [5e-03, 5e+01]
  RHS range        [5e-03, 5e+04]

Presolve removed 8069 rows and 408 columns
Presolve time: 0.50s
Presolved: 9913 rows, 2988 columns, 91612 nonzeros
Variable types: 1347 continuous, 1641 integer (1344 binary)

Root relaxation: objective 4.528347e-03, 2276 iterations, 0.20 seconds (0.64 work units)

    Nodes    |    Current Node    |     Objective Bounds      |     Work
 Expl Unexpl |  Obj  Depth IntInf | Incumbent    BestBd   Gap | It/Node Time

     0     0    0.00453    0  259          -    0.00453      -     -    1s
     0     0    0.00498    0  385          -    0.00498      -     -    1s
     0     0    0.00502    0  360          -    0.00502      -     -    1s
     0     0    0.00511    0  405          -    0.00511      -     -    2s
     0     0    0.00511    0  382          -    0.00511      -     -    2s
     0     0    0.00513    0  387          -    0.00513      -     -    3s
     0     0    0.00513    0  406          -    0.00513      -     -    3s
     0     0    0.00513    0  416          -    0.00513      -     -    4s
     0     0    0.00515    0  389          -    0.00515      -     -    4s
     0     0    0.00515    0  421          -    0.00515      -     -    4s
     0     0    0.00515    0  393          -    0.00515      -     -    4s
     0     0    0.00515    0  418          -    0.00515      -     -    5s
     0     0    0.00515    0  398          -    0.00515      -     -    5s
     0     0    0.00515    0  443          -    0.00515      -     -    6s
     0     0    0.00515    0  443          -    0.00515      -     -    6s
     0     0    0.00515    0  383          -    0.00515      -     -    7s
     0     0    0.00515    0  399          -    0.00515      -     -    7s
     0     0    0.00515    0  384          -    0.00515      -     -    8s
     0     0    0.00515    0  359          -    0.00515      -     -    8s
     0     0    0.00515    0  366          -    0.00515      -     -    8s
     0     0    0.00515    0  397          -    0.00515      -     -    8s
     0     0    0.00515    0  396          -    0.00515      -     -    9s
     0     0    0.00515    0  396          -    0.00515      -     -    9s
     0     0    0.00515    0  390          -    0.00515      -     -    9s
     0     2    0.00515    0  389          -    0.00515      -     -   10s

Cutting planes:
  Learned: 1
  Gomory: 5
  Cover: 12
  Implied bound: 132
  Clique: 1
  MIR: 159
  StrongCG: 2
  Flow cover: 28
  Zero half: 2
  Network: 4
  RLT: 7
  Relax-and-lift: 38
  BQP: 1

Explored 55 nodes (83504 simplex iterations) in 14.32 seconds (29.33 work units)
Thread count was 1 (of 20 available processors)

Solution count 0

Model is infeasible
Best objective -, best bound -, gap -

User-callback calls 3856, time in user-callback 0.00 sec

Gurobi 13.0.2 (win64) logging started Mon Jul 20 06:01:54 2026

Set parameter LogFile to value "E:\codes\ExactEBRP\results\gf_solver_backend_migration_round24r\runs\stage1a__moderate4301__t_grb_ext_warm__120s\external\native_logs\L0_attempt_0.gurobi.log"
Gurobi Optimizer version 13.0.2 build v13.0.2rc1 (win64 - Windows 10.0 (19045.2))

CPU model: 12th Gen Intel(R) Core(TM) i7-12700KF, instruction set [SSE2|AVX|AVX2]
Thread count: 12 physical cores, 20 logical processors, using up to 1 threads

Non-default parameters:
TimeLimit  30
MIPGap  0
MIPGapAbs  0
LogToConsole  0
Threads  1

Optimize a model with 11911 rows, 3376 columns and 67111 nonzeros (Min)
Model fingerprint: 0xea862b71
Model has 21 linear objective coefficients
Variable types: 1685 continuous, 1691 integer (1491 binary)
Coefficient statistics:
  Matrix range     [5e-03, 2e+04]
  Objective range  [8e-03, 1e+00]
  Bounds range     [5e-03, 5e+01]
  RHS range        [5e-03, 5e+04]

Presolve removed 4270 rows and 394 columns
Presolve time: 0.34s
Presolved: 7641 rows, 2982 columns, 52995 nonzeros
Variable types: 1529 continuous, 1453 integer (1319 binary)

Root relaxation: objective 4.528347e-03, 2905 iterations, 0.12 seconds (0.29 work units)

    Nodes    |    Current Node    |     Objective Bounds      |     Work
 Expl Unexpl |  Obj  Depth IntInf | Incumbent    BestBd   Gap | It/Node Time

     0     0    0.00453    0  183          -    0.00453      -     -    0s
     0     0    0.00458    0  210          -    0.00458      -     -    1s
     0     0    0.00497    0  219          -    0.00497      -     -    1s
     0     0    0.00502    0  197          -    0.00502      -     -    1s
     0     0    0.00504    0  205          -    0.00504      -     -    1s
     0     0    0.00504    0  271          -    0.00504      -     -    2s
     0     0    0.00504    0  227          -    0.00504      -     -    2s
     0     0    0.00504    0  224          -    0.00504      -     -    2s
     0     0    0.00504    0  210          -    0.00504      -     -    2s
     0     0    0.00504    0  230          -    0.00504      -     -    2s
     0     0    0.00504    0  237          -    0.00504      -     -    3s
     0     0    0.00504    0  169          -    0.00504      -     -    3s
     0     2    0.00504    0  162          -    0.00504      -     -    4s
    12     4    0.00666    6  183          -    0.00666      -   514    5s

Cutting planes:
  Learned: 2
  Gomory: 1
  Cover: 11
  Implied bound: 82
  Clique: 8
  MIR: 222
  StrongCG: 3
  Flow cover: 20
  GUB cover: 2
  Zero half: 1
  Network: 2
  RLT: 5
  Relax-and-lift: 36
  BQP: 5

Explored 23 nodes (33477 simplex iterations) in 5.20 seconds (10.38 work units)
Thread count was 1 (of 20 available processors)

Solution count 0

Model is infeasible
Best objective -, best bound -, gap -

User-callback calls 2060, time in user-callback 0.00 sec

Gurobi 13.0.2 (win64) logging started Mon Jul 20 06:30:10 2026

Set parameter LogFile to value "E:\codes\ExactEBRP\results\gf_solver_backend_migration_round24r\runs\stage1a__moderate4301__t_grb_ext_warm__120s\external\native_logs\L0_attempt_0.gurobi.log"
Gurobi Optimizer version 13.0.2 build v13.0.2rc1 (win64 - Windows 10.0 (19045.2))

CPU model: 12th Gen Intel(R) Core(TM) i7-12700KF, instruction set [SSE2|AVX|AVX2]
Thread count: 12 physical cores, 20 logical processors, using up to 1 threads

Non-default parameters:
TimeLimit  30
MIPGap  0
MIPGapAbs  0
LogToConsole  0
Threads  1

Optimize a model with 11911 rows, 3376 columns and 67111 nonzeros (Min)
Model fingerprint: 0xea862b71
Model has 21 linear objective coefficients
Variable types: 1685 continuous, 1691 integer (1491 binary)
Coefficient statistics:
  Matrix range     [5e-03, 2e+04]
  Objective range  [8e-03, 1e+00]
  Bounds range     [5e-03, 5e+01]
  RHS range        [5e-03, 5e+04]

Presolve removed 4270 rows and 394 columns
Presolve time: 0.35s
Presolved: 7641 rows, 2982 columns, 52995 nonzeros
Variable types: 1529 continuous, 1453 integer (1319 binary)

Root relaxation: objective 4.528347e-03, 2905 iterations, 0.12 seconds (0.29 work units)

    Nodes    |    Current Node    |     Objective Bounds      |     Work
 Expl Unexpl |  Obj  Depth IntInf | Incumbent    BestBd   Gap | It/Node Time

     0     0    0.00453    0  183          -    0.00453      -     -    0s
     0     0    0.00458    0  210          -    0.00458      -     -    1s
     0     0    0.00497    0  219          -    0.00497      -     -    1s
     0     0    0.00502    0  197          -    0.00502      -     -    1s
     0     0    0.00504    0  205          -    0.00504      -     -    1s
     0     0    0.00504    0  271          -    0.00504      -     -    2s
     0     0    0.00504    0  227          -    0.00504      -     -    2s
     0     0    0.00504    0  224          -    0.00504      -     -    2s
     0     0    0.00504    0  210          -    0.00504      -     -    2s
     0     0    0.00504    0  230          -    0.00504      -     -    3s
     0     0    0.00504    0  237          -    0.00504      -     -    3s
     0     0    0.00504    0  169          -    0.00504      -     -    3s
     0     2    0.00504    0  162          -    0.00504      -     -    4s
    10     2 infeasible    5               -    0.00666      -   363    5s

Cutting planes:
  Learned: 2
  Gomory: 1
  Cover: 11
  Implied bound: 82
  Clique: 8
  MIR: 222
  StrongCG: 3
  Flow cover: 20
  GUB cover: 2
  Zero half: 1
  Network: 2
  RLT: 5
  Relax-and-lift: 36
  BQP: 5

Explored 23 nodes (33477 simplex iterations) in 5.28 seconds (10.38 work units)
Thread count was 1 (of 20 available processors)

Solution count 0

Model is infeasible
Best objective -, best bound -, gap -

User-callback calls 2071, time in user-callback 0.00 sec
